NAME : anjos-70-05.-392.tour
COMMENT : Length = -392
COMMENT : Found by LKH [Keld Helsgaun] Sun Apr 13 17:05:01 2025
TYPE : TOUR
DIMENSION : 70
TOUR_SECTION
1
40
54
29
11
39
16
14
49
61
66
70
35
63
5
36
3
57
53
34
25
50
18
47
56
37
60
42
7
59
15
30
33
8
10
45
48
46
52
4
12
31
41
13
69
43
65
23
51
21
17
32
38
26
20
27
22
6
58
19
64
24
9
68
2
44
55
67
28
62
-1
EOF
